WARNING: for repeatability, setting FPU to use double precision
============================[ Problem Statistics ]=============================
|                                                                             |
|  Number of variables:       7298456                                         |
|  Number of clauses:        39824383                                         |
|  Parse time:                  10.11 s                                       |
|                                                                             |
c ============================[ Search Statistics ]==============================
c | Conflicts |          ORIGINAL         |          LEARNT          | Progress |
c |           |    Vars  Clauses Literals |    Limit  Clauses Lit/Cl |          |
c ===============================================================================
We had 3627 decisions of which only 0 were on extended
We had 217573199 decisions of which only 0 were on extended
c Switched to VSIDS.
c Switched to LRB.
c Switched to VSIDS.
c Switched to LRB.
c Switched to VSIDS.
c Switched to LRB.
We had 1138261651 decisions of which only 0 were on extended
c Switched to VSIDS.
c Switched to LRB.
c Switched to VSIDS.
c Switched to LRB.
c Switched to VSIDS.
c Switched to LRB.
c Switched to VSIDS.
We had 1710278467 decisions of which only 0 were on extended
c Switched to LRB.
c Switched to VSIDS.
c Switched to LRB.
c Switched to VSIDS.
c Switched to LRB.
We had 2301748516 decisions of which only 0 were on extended
c Switched to VSIDS.
We had 2561715454 decisions of which only 0 were on extended
c Switched to LRB.
We had 2635019641 decisions of which only 0 were on extended
We had 2648410720 decisions of which only 0 were on extended
We had 2653800847 decisions of which only 0 were on extended
c Switched to VSIDS.
We had 2695011544 decisions of which only 0 were on extended
c Switched to LRB.
We had 2764433937 decisions of which only 0 were on extended
We had 2802938484 decisions of which only 0 were on extended
We had 2821744576 decisions of which only 0 were on extended
We had 2849960356 decisions of which only 0 were on extended
We had 2851930374 decisions of which only 0 were on extended
We had 2857651500 decisions of which only 0 were on extended
We had 2875606694 decisions of which only 0 were on extended
c Switched to VSIDS.
We had 2953835800 decisions of which only 0 were on extended
c Switched to LRB.
We had 3050571165 decisions of which only 0 were on extended
Window full
Deactivate
We had 3090184788 decisions of which only 0 were on extended
We had 3128460377 decisions of which only 0 were on extended
We had 3153894216 decisions of which only 0 were on extended
We had 3189015250 decisions of which only 0 were on extended
c Switched to VSIDS.
We had 3235564691 decisions of which only 0 were on extended
We had 3247651513 decisions of which only 0 were on extended
We had 3273061391 decisions of which only 0 were on extended
c Switched to LRB.
We had 3373185595 decisions of which only 0 were on extended
We had 3442221557 decisions of which only 0 were on extended
We had 3461513903 decisions of which only 0 were on extended
We had 3475704113 decisions of which only 0 were on extended
We had 3475717657 decisions of which only 0 were on extended
We had 3485937402 decisions of which only 0 were on extended
We had 3489752003 decisions of which only 0 were on extended
We had 3495418966 decisions of which only 0 were on extended
We had 3495491565 decisions of which only 0 were on extended
We had 3495549596 decisions of which only 0 were on extended
We had 3501701593 decisions of which only 0 were on extended
We had 3501726845 decisions of which only 0 were on extended
We had 3502098329 decisions of which only 0 were on extended
c Switched to VSIDS.
We had 3508052574 decisions of which only 0 were on extended
We had 3529929590 decisions of which only 0 were on extended
We had 3556303863 decisions of which only 0 were on extended
We had 3557380768 decisions of which only 0 were on extended
We had 3560534850 decisions of which only 0 were on extended
We had 3638854602 decisions of which only 0 were on extended
We had 3645394003 decisions of which only 0 were on extended
c Switched to LRB.
We had 3782256183 decisions of which only 0 were on extended
We had 3879625375 decisions of which only 0 were on extended
We had 3912718308 decisions of which only 0 were on extended
We had 3914049633 decisions of which only 0 were on extended
We had 3915430439 decisions of which only 0 were on extended
c Switched to VSIDS.
We had 3917789664 decisions of which only 0 were on extended
We had 3917871747 decisions of which only 0 were on extended
We had 3958430921 decisions of which only 0 were on extended
We had 3983406237 decisions of which only 0 were on extended
We had 3999995442 decisions of which only 0 were on extended
We had 4027861440 decisions of which only 0 were on extended
We had 4037222135 decisions of which only 0 were on extended
We had 4044853485 decisions of which only 0 were on extended
We had 4072157952 decisions of which only 0 were on extended
We had 4072405302 decisions of which only 0 were on extended
We had 4083786862 decisions of which only 0 were on extended
c Switched to LRB.
We had 4137843705 decisions of which only 0 were on extended
We had 4145556542 decisions of which only 0 were on extended
We had 4162323855 decisions of which only 0 were on extended
We had 4245206720 decisions of which only 0 were on extended
We had 4250905495 decisions of which only 0 were on extended
We had 4262437866 decisions of which only 0 were on extended
We had 4262570368 decisions of which only 0 were on extended
We had 4262698595 decisions of which only 0 were on extended
We had 4262719236 decisions of which only 0 were on extended
We had 4262909393 decisions of which only 0 were on extended
We had 4263057405 decisions of which only 0 were on extended
We had 4263194607 decisions of which only 0 were on extended
We had 4263287096 decisions of which only 0 were on extended
We had 4263350444 decisions of which only 0 were on extended
We had 4264417636 decisions of which only 0 were on extended
We had 4264481700 decisions of which only 0 were on extended
We had 4269206584 decisions of which only 0 were on extended
We had 4269296539 decisions of which only 0 were on extended
We had 4278301986 decisions of which only 0 were on extended
c Switched to VSIDS.
We had 4292584072 decisions of which only 0 were on extended
We had 4293174928 decisions of which only 0 were on extended
We had 4321472519 decisions of which only 0 were on extended
We had 4326660293 decisions of which only 0 were on extended
We had 4326737723 decisions of which only 0 were on extended
We had 4326955694 decisions of which only 0 were on extended
We had 4346244861 decisions of which only 0 were on extended
We had 4398713027 decisions of which only 0 were on extended
We had 4466544934 decisions of which only 0 were on extended
We had 4492040664 decisions of which only 0 were on extended
c Switched to LRB.
We had 4537055712 decisions of which only 0 were on extended
We had 4541328027 decisions of which only 0 were on extended
We had 4541366758 decisions of which only 0 were on extended
We had 4568341918 decisions of which only 0 were on extended
We had 4591369608 decisions of which only 0 were on extended
We had 4591502684 decisions of which only 0 were on extended
We had 4591543921 decisions of which only 0 were on extended
We had 4591571005 decisions of which only 0 were on extended
We had 4598086642 decisions of which only 0 were on extended
We had 4598177126 decisions of which only 0 were on extended
We had 4604308167 decisions of which only 0 were on extended
We had 4630711639 decisions of which only 0 were on extended
We had 4630966559 decisions of which only 0 were on extended
We had 4631893665 decisions of which only 0 were on extended
We had 4632270839 decisions of which only 0 were on extended
We had 4632515291 decisions of which only 0 were on extended
We had 4632585599 decisions of which only 0 were on extended
We had 4632804322 decisions of which only 0 were on extended
We had 4632826347 decisions of which only 0 were on extended
We had 4633324093 decisions of which only 0 were on extended
We had 4641391103 decisions of which only 0 were on extended
We had 4654011788 decisions of which only 0 were on extended
We had 4662855829 decisions of which only 0 were on extended
We had 4662922918 decisions of which only 0 were on extended
We had 4666874437 decisions of which only 0 were on extended
We had 4666912044 decisions of which only 0 were on extended
We had 4667034943 decisions of which only 0 were on extended
We had 4670147102 decisions of which only 0 were on extended
We had 4676810607 decisions of which only 0 were on extended
We had 4676890210 decisions of which only 0 were on extended
We had 4676948044 decisions of which only 0 were on extended
We had 4686945127 decisions of which only 0 were on extended
c Switched to VSIDS.
We had 4699700308 decisions of which only 0 were on extended
We had 4728410152 decisions of which only 0 were on extended
We had 4729137922 decisions of which only 0 were on extended
We had 4746654914 decisions of which only 0 were on extended
We had 4748102920 decisions of which only 0 were on extended
We had 4748849550 decisions of which only 0 were on extended
We had 4769677748 decisions of which only 0 were on extended
We had 4769809063 decisions of which only 0 were on extended
We had 4769857732 decisions of which only 0 were on extended
We had 4771183930 decisions of which only 0 were on extended
We had 4771252562 decisions of which only 0 were on extended
We had 4771337601 decisions of which only 0 were on extended
We had 4771486690 decisions of which only 0 were on extended
We had 4772007727 decisions of which only 0 were on extended
We had 4786305216 decisions of which only 0 were on extended
We had 4789445258 decisions of which only 0 were on extended
We had 4789514876 decisions of which only 0 were on extended
We had 4789570238 decisions of which only 0 were on extended
We had 4797136137 decisions of which only 0 were on extended
We had 4805078862 decisions of which only 0 were on extended
We had 4805151589 decisions of which only 0 were on extended
We had 4805380708 decisions of which only 0 were on extended
We had 4805525781 decisions of which only 0 were on extended
We had 4805595899 decisions of which only 0 were on extended
We had 4805739973 decisions of which only 0 were on extended
We had 4805868093 decisions of which only 0 were on extended
We had 4810623051 decisions of which only 0 were on extended
c Switched to LRB.
We had 4850820570 decisions of which only 0 were on extended
We had 4853256855 decisions of which only 0 were on extended
We had 4853356067 decisions of which only 0 were on extended
c ===============================================================================
restarts                  : 5905
conflicts                 : 1522318        (427 /sec)
decisions                 : 4853361583     (0.00 % random) (1361528 /sec)
propagations              : 9954911804     (2792682 /sec)
conflict literals         : 21281595       (16.41 % deleted)

conflicts w/ DIP found    : 110408         (7.25 % of conflicts)
conflicts w/ dangerous DIP: 0              (0.00 % of conflicts)
conflicts w/ DIP-learning : 0              (0.00 % of conflicts)
decisions on ext vars     : 0              (0.00 % of decisions)
total ext vars            : 0           
tried delete ext vars     : 0           
deleted ext vars          : 0           
max ext vars              : 0           

Memory used               : 5083.00 MB
CPU time                  : 3564.64 s
DIP computation time      : 1.50854 s (0.04 % of total time)
ER_sel time               : 1.76176 s
ER_add time               : 0 s
ER_delC time              : 0 s
ER_delV time              : 0 s
ER_sub time               : 0.244646 s
ER_stat time              : 0 s

INDETERMINATE
